50
17119

374 515
466 465
461 366
788 665
32 581
537 683
64 359
606 628
456 573
431 188
180 455
546 705
567 633
248 770
799 267
328 32
525 427
691 613
860 18
676 802
536 114
859 662
704 692
887 270
124 664
151 555
822 562
46 429
941 35
770 436
929 552
356 775
152 595
205 697
151 937
110 435
964 72
98 510
985 660
246 692
316 1000
363 78
681 677
70 653
96 726
163 116
458 727
426 665
689 591
606 59
